30
5
410442
0
0
53 192 71 36 14
1
0
58 154 66 49 21
2
0
51 172 66 39 13
3
0
63 212 45 31 16
4
0
69 153 52 34 17
5
0
55 235 53 39 22
6
0
46 138 46 39 15
7
0
50 174 54 35 24
8
0
34 167 55 40 13
9
0
87 174 69 43 24
10
0
48 202 45 18 26
11
0
61 150 60 37 20
12
0
46 174 34 24 6
13
0
58 173 52 22 20
14
0
39 180 45 29 20
15
0
47 181 45 26 23
16
0
60 131 51 28 16
17
0
56 157 50 23 10
18
0
83 183 58 30 19
19
0
58 184 45 37 15
20
0
49 142 41 34 11
21
0
39 172 50 22 18
22
0
44 160 46 30 21
23
0
46 198 67 44 26
24
0
46 215 72 41 16
25
0
47 153 45 36 20
26
0
52 186 28 33 26
27
0
53 178 56 33 21
28
0
61 195 46 41 16
29
0
30 201 36 25 20
